p cnf 20 63
-1 -7 12 0
-4 -5 -10 0
3 17 -18 0
-9 12 -17 0
-1 11 13 0
-13 -16 17 0
2 4 17 0
1 15 19 0
2 -3 -6 0
-1 -4 -6 0
-1 5 18 0
-2 4 -20 0
2 3 12 0
-8 -12 19 0
4 -7 -10 0
1 9 -13 0
5 -16 20 0
3 -5 -20 0
7 9 -10 0
-2 14 -19 0
-8 14 -18 0
-10 12 14 0
3 6 -10 0
3 8 -10 0
1 -14 19 0
-1 10 17 0
2 -3 -4 0
-7 -10 14 0
-3 -13 17 0
-2 -16 -19 0
-7 -13 18 0
-5 -6 9 0
-5 -6 -8 0
-9 -16 -18 0
5 14 -18 0
2 -3 12 0
-12 -13 -14 0
-10 11 13 0
-1 -12 18 0
5 -7 11 0
5 12 -16 0
1 -5 12 0
1 10 -12 0
8 14 18 0
3 5 -18 0
-3 10 11 0
5 -6 -19 0
3 5 11 0
-7 -10 15 0
9 -13 -16 0
-9 16 17 0
3 -11 -15 0
-6 10 16 0
-1 -8 -18 0
1 16 17 0
-5 -6 12 0
8 -12 -14 0
-9 -19 20 0
16 17 18 0
6 13 16 0
8 -13 -18 0
12 19 20 0
1 -17 -19 0
